p tw 84 95
1 2
2 13
3 4
3 29
4 78
5 6
6 7
7 8
8 9
9 10
10 11
11 12
12 14
13 24
14 15
15 16
16 17
17 18
18 19
19 20
20 21
21 22
22 23
22 26
23 25
24 35
25 82
26 27
27 28
28 29
29 30
30 31
30 32
31 82
32 33
33 34
34 36
34 26
35 46
36 37
37 38
38 39
38 43
39 40
40 41
40 43
41 42
42 43
42 47
43 44
44 45
45 82
46 57
47 48
48 49
49 50
49 54
50 51
51 52
52 53
53 26
54 55
55 56
55 74
56 58
57 68
58 59
58 67
59 60
60 61
61 62
62 63
63 64
63 70
64 65
65 66
66 82
67 69
68 79
69 70
70 71
71 72
72 73
73 26
74 75
75 76
76 77
77 82
78 80
79 84
79 5
80 81
81 82
82 83
84 3
